Total weight: 1255.9
Route 1: 0 2 6 7 8 46 4 45 5 3 1 55 0 
Route 2: 0 12 47 17 16 15 13 9 10 11 14 0 
Route 3: 0 65 57 22 19 18 48 21 23 25 24 0 
Route 4: 0 31 29 27 26 28 30 32 33 34 91 0 
Route 5: 0 42 44 39 38 36 35 37 40 43 41 0 
Route 6: 0 64 51 76 89 49 20 83 66 0 
Route 7: 0 80 0 
Route 8: 0 61 72 71 93 67 50 62 0 
Route 9: 0 69 98 88 53 78 73 79 60 100 70 68 0 
Route 10: 0 92 95 85 63 84 56 0 
Route 11: 0 90 82 87 97 59 0 
Route 12: 0 81 54 96 94 0 
Route 13: 0 99 52 86 74 58 75 77 0 
